s td 8 13 20
b 1 1 2 3 4 6 7 9 10 12 16 17 19 20
b 2 1 2 4 6 7 9 10 12 16 17 18 19 20
b 3 1 2 5 6 7 9 10 12 16 17 18 20
b 4 1 5 6 7 12 15 16 18 20
b 5 1 3 4 6 7 9 10 12 13 16 17 19 20
b 6 1 3 4 6 7 8 13 16 17 20
b 7 1 2 3 4 6 7 9 10 12 14 16 17 20
b 8 3 6 7 9 10 11 12 14 17
1 2
1 5
1 7
2 3
3 4
5 6
7 8
